Route #1: 17 51 16 3 44 32 9 39 40 12 26
Route #2: 7 35 53 14 59 66 11 65 38
Route #3: 72 58 10 31 55 25 50 18 24 49 56 23 63
Route #4: 33 73 1 43 41 42 64 22 61 28 62
Route #5: 21 47 36 69 71 60 70 20 37 15 57 13 54 19 8
Route #6: 46 52 27 45 29 5 48 30 74 2 6
Route #7: 75 68 4 34 67
Cost 715